(declare-fun cmp265.i.i_47_101 () (_ BitVec 1))
(declare-fun narrow_47_103 () (_ BitVec 1))
(declare-fun cmp261.not.i.i_47_100 () (_ BitVec 1))
(declare-fun i146.i.i_47_99 () (_ BitVec 32))
(declare-fun i136.i.i_47_96 () (_ BitVec 32))
(declare-fun i144.i.i_47_98 () (_ BitVec 32))
(declare-fun i138.i.i_47_97 () (_ BitVec 32))
(declare-fun src_reg_47_27 () (_ BitVec 32))
(declare-fun src_reg_47_26 () (_ BitVec 32))
(declare-fun dst_reg_47_9 () (_ BitVec 32))
(declare-fun dst_reg_47_8 () (_ BitVec 32))
(declare-fun i30.i32_47_95 () (_ BitVec 32))
(declare-fun src_reg_47_29 () (_ BitVec 32))
(declare-fun i29.i29_47_94 () (_ BitVec 32))
(declare-fun src_reg_47_28 () (_ BitVec 32))
(declare-fun i28.i26_47_93 () (_ BitVec 32))
(declare-fun i27.i23_47_92 () (_ BitVec 32))
(declare-fun i26.i20_47_91 () (_ BitVec 64))
(declare-fun src_reg_47_25 () (_ BitVec 64))
(declare-fun i25.i17_47_90 () (_ BitVec 64))
(declare-fun src_reg_47_24 () (_ BitVec 64))
(declare-fun i24.i14_47_89 () (_ BitVec 64))
(declare-fun src_reg_47_23 () (_ BitVec 64))
(declare-fun i23.i11_47_88 () (_ BitVec 64))
(declare-fun src_reg_47_22 () (_ BitVec 64))
(declare-fun i22.i8_47_87 () (_ BitVec 64))
(declare-fun src_reg_47_21 () (_ BitVec 64))
(declare-fun i21.i5_47_86 () (_ BitVec 64))
(declare-fun src_reg_47_20 () (_ BitVec 64))
(declare-fun i.i2_47_85 () (_ BitVec 32))
(declare-fun i30.i_47_84 () (_ BitVec 32))
(declare-fun dst_reg_47_11 () (_ BitVec 32))
(declare-fun i29.i_47_83 () (_ BitVec 32))
(declare-fun dst_reg_47_10 () (_ BitVec 32))
(declare-fun i28.i_47_82 () (_ BitVec 32))
(declare-fun i27.i_47_81 () (_ BitVec 32))
(declare-fun i26.i_47_80 () (_ BitVec 64))
(declare-fun dst_reg_47_7 () (_ BitVec 64))
(declare-fun i25.i_47_79 () (_ BitVec 64))
(declare-fun dst_reg_47_6 () (_ BitVec 64))
(declare-fun i24.i_47_78 () (_ BitVec 64))
(declare-fun dst_reg_47_5 () (_ BitVec 64))
(declare-fun i23.i_47_77 () (_ BitVec 64))
(declare-fun dst_reg_47_4 () (_ BitVec 64))
(declare-fun i22.i_47_76 () (_ BitVec 64))
(declare-fun dst_reg_47_3 () (_ BitVec 64))
(declare-fun i21.i_47_75 () (_ BitVec 64))
(declare-fun dst_reg_47_2 () (_ BitVec 64))
(declare-fun i.i_47_74 () (_ BitVec 32))
(declare-fun other_branch_src_reg_47_71 () (_ BitVec 8))
(declare-fun other_branch_src_reg_47_70 () (_ BitVec 32))
(declare-fun other_branch_src_reg_47_69 () (_ BitVec 32))
(declare-fun other_branch_src_reg_47_68 () (_ BitVec 32))
(declare-fun other_branch_src_reg_47_67 () (_ BitVec 32))
(declare-fun other_branch_src_reg_47_66 () (_ BitVec 32))
(declare-fun other_branch_src_reg_47_65 () (_ BitVec 32))
(declare-fun other_branch_src_reg_47_64 () (_ BitVec 32))
(declare-fun other_branch_src_reg_47_63 () (_ BitVec 32))
(declare-fun other_branch_src_reg_47_62 () (_ BitVec 32))
(declare-fun other_branch_src_reg_47_61 () (_ BitVec 64))
(declare-fun other_branch_src_reg_47_60 () (_ BitVec 64))
(declare-fun other_branch_src_reg_47_59 () (_ BitVec 64))
(declare-fun other_branch_src_reg_47_58 () (_ BitVec 64))
(declare-fun other_branch_src_reg_47_57 () (_ BitVec 64))
(declare-fun other_branch_src_reg_47_56 () (_ BitVec 64))
(declare-fun other_branch_src_reg_47_55 () (_ BitVec 32))
(declare-fun other_branch_src_reg_47_54 () (_ BitVec 32))
(declare-fun other_branch_dst_reg_47_53 () (_ BitVec 8))
(declare-fun other_branch_dst_reg_47_52 () (_ BitVec 32))
(declare-fun other_branch_dst_reg_47_51 () (_ BitVec 32))
(declare-fun other_branch_dst_reg_47_50 () (_ BitVec 32))
(declare-fun other_branch_dst_reg_47_49 () (_ BitVec 32))
(declare-fun other_branch_dst_reg_47_48 () (_ BitVec 32))
(declare-fun other_branch_dst_reg_47_47 () (_ BitVec 32))
(declare-fun other_branch_dst_reg_47_46 () (_ BitVec 32))
(declare-fun other_branch_dst_reg_47_45 () (_ BitVec 32))
(declare-fun other_branch_dst_reg_47_44 () (_ BitVec 32))
(declare-fun other_branch_dst_reg_47_43 () (_ BitVec 64))
(declare-fun other_branch_dst_reg_47_42 () (_ BitVec 64))
(declare-fun other_branch_dst_reg_47_41 () (_ BitVec 64))
(declare-fun other_branch_dst_reg_47_40 () (_ BitVec 64))
(declare-fun other_branch_dst_reg_47_39 () (_ BitVec 64))
(declare-fun other_branch_dst_reg_47_38 () (_ BitVec 64))
(declare-fun other_branch_dst_reg_47_37 () (_ BitVec 32))
(declare-fun other_branch_dst_reg_47_36 () (_ BitVec 32))
(declare-fun src_reg_47_35 () (_ BitVec 8))
(declare-fun src_reg_47_34 () (_ BitVec 32))
(declare-fun src_reg_47_33 () (_ BitVec 32))
(declare-fun src_reg_47_32 () (_ BitVec 32))
(declare-fun src_reg_47_31 () (_ BitVec 32))
(declare-fun src_reg_47_30 () (_ BitVec 32))
(declare-fun src_reg_47_19 () (_ BitVec 32))
(declare-fun src_reg_47_18 () (_ BitVec 32))
(declare-fun dst_reg_47_17 () (_ BitVec 8))
(declare-fun dst_reg_47_16 () (_ BitVec 32))
(declare-fun dst_reg_47_15 () (_ BitVec 32))
(declare-fun dst_reg_47_14 () (_ BitVec 32))
(declare-fun dst_reg_47_13 () (_ BitVec 32))
(declare-fun dst_reg_47_12 () (_ BitVec 32))
(declare-fun dst_reg_47_1 () (_ BitVec 32))
(declare-fun dst_reg_47_0 () (_ BitVec 32))
(declare-fun cmp.not.i_47_106 () (_ BitVec 1))
(declare-fun i.i35_47_104 () (_ BitVec 32))
(declare-fun cmp2.not.i_47_109 () (_ BitVec 1))
(declare-fun i1.i_47_107 () (_ BitVec 32))
(declare-fun i365.i538.i_47_124 () (_ BitVec 32))
(declare-fun cond371.i540.i_47_126 () (_ BitVec 32))
(declare-fun i364.i536.i_47_123 () (_ BitVec 32))
(declare-fun cmp366.i539.i_47_125 () (_ BitVec 1))
(declare-fun i363.i532.i_47_120 () (_ BitVec 32))
(declare-fun cond361.i534.i_47_122 () (_ BitVec 32))
(declare-fun i362.i530.i_47_119 () (_ BitVec 32))
(declare-fun cmp356.i533.i_47_121 () (_ BitVec 1))
(declare-fun i373.i.i_47_116 () (_ BitVec 32))
(declare-fun cond418.i.i_47_118 () (_ BitVec 32))
(declare-fun add410.i.i_47_115 () (_ BitVec 32))
(declare-fun cmp413.i.i_47_117 () (_ BitVec 1))
(declare-fun sub400.i.i_47_111 () (_ BitVec 32))
(declare-fun cond407.i.i_47_113 () (_ BitVec 32))
(declare-fun cmp402.i.i_47_112 () (_ BitVec 1))
(declare-fun other_branch_src_reg_47_270 () (_ BitVec 8))
(declare-fun other_branch_src_reg_47_198 () (_ BitVec 8))
(declare-fun other_branch_src_reg_47_269 () (_ BitVec 32))
(declare-fun other_branch_src_reg_47_197 () (_ BitVec 32))
(declare-fun other_branch_src_reg_47_268 () (_ BitVec 32))
(declare-fun other_branch_src_reg_47_196 () (_ BitVec 32))
(declare-fun other_branch_src_reg_47_267 () (_ BitVec 32))
(declare-fun other_branch_src_reg_47_195 () (_ BitVec 32))
(declare-fun other_branch_src_reg_47_266 () (_ BitVec 32))
(declare-fun other_branch_src_reg_47_194 () (_ BitVec 32))
(declare-fun other_branch_src_reg_47_265 () (_ BitVec 32))
(declare-fun other_branch_src_reg_47_193 () (_ BitVec 32))
(declare-fun other_branch_src_reg_47_264 () (_ BitVec 32))
(declare-fun other_branch_src_reg_47_192 () (_ BitVec 32))
(declare-fun other_branch_src_reg_47_263 () (_ BitVec 32))
(declare-fun other_branch_src_reg_47_191 () (_ BitVec 32))
(declare-fun other_branch_src_reg_47_262 () (_ BitVec 32))
(declare-fun other_branch_src_reg_47_190 () (_ BitVec 32))
(declare-fun other_branch_src_reg_47_261 () (_ BitVec 32))
(declare-fun other_branch_src_reg_47_189 () (_ BitVec 32))
(declare-fun other_branch_src_reg_47_260 () (_ BitVec 64))
(declare-fun other_branch_src_reg_47_188 () (_ BitVec 64))
(declare-fun other_branch_src_reg_47_259 () (_ BitVec 64))
(declare-fun other_branch_src_reg_47_187 () (_ BitVec 64))
(declare-fun other_branch_src_reg_47_258 () (_ BitVec 64))
(declare-fun other_branch_src_reg_47_186 () (_ BitVec 64))
(declare-fun other_branch_src_reg_47_257 () (_ BitVec 64))
(declare-fun other_branch_src_reg_47_185 () (_ BitVec 64))
(declare-fun other_branch_src_reg_47_256 () (_ BitVec 64))
(declare-fun other_branch_src_reg_47_184 () (_ BitVec 64))
(declare-fun other_branch_src_reg_47_255 () (_ BitVec 64))
(declare-fun other_branch_src_reg_47_183 () (_ BitVec 64))
(declare-fun other_branch_src_reg_47_254 () (_ BitVec 32))
(declare-fun other_branch_src_reg_47_182 () (_ BitVec 32))
(declare-fun other_branch_src_reg_47_253 () (_ BitVec 32))
(declare-fun other_branch_src_reg_47_181 () (_ BitVec 32))
(declare-fun other_branch_dst_reg_47_252 () (_ BitVec 8))
(declare-fun other_branch_dst_reg_47_180 () (_ BitVec 8))
(declare-fun other_branch_dst_reg_47_251 () (_ BitVec 32))
(declare-fun other_branch_dst_reg_47_179 () (_ BitVec 32))
(declare-fun other_branch_dst_reg_47_250 () (_ BitVec 32))
(declare-fun other_branch_dst_reg_47_178 () (_ BitVec 32))
(declare-fun other_branch_dst_reg_47_249 () (_ BitVec 32))
(declare-fun other_branch_dst_reg_47_177 () (_ BitVec 32))
(declare-fun other_branch_dst_reg_47_248 () (_ BitVec 32))
(declare-fun other_branch_dst_reg_47_176 () (_ BitVec 32))
(declare-fun other_branch_dst_reg_47_247 () (_ BitVec 32))
(declare-fun other_branch_dst_reg_47_175 () (_ BitVec 32))
(declare-fun other_branch_dst_reg_47_246 () (_ BitVec 32))
(declare-fun other_branch_dst_reg_47_174 () (_ BitVec 32))
(declare-fun other_branch_dst_reg_47_245 () (_ BitVec 32))
(declare-fun other_branch_dst_reg_47_173 () (_ BitVec 32))
(declare-fun other_branch_dst_reg_47_244 () (_ BitVec 32))
(declare-fun other_branch_dst_reg_47_172 () (_ BitVec 32))
(declare-fun other_branch_dst_reg_47_243 () (_ BitVec 32))
(declare-fun other_branch_dst_reg_47_171 () (_ BitVec 32))
(declare-fun other_branch_dst_reg_47_242 () (_ BitVec 64))
(declare-fun other_branch_dst_reg_47_170 () (_ BitVec 64))
(declare-fun other_branch_dst_reg_47_241 () (_ BitVec 64))
(declare-fun other_branch_dst_reg_47_169 () (_ BitVec 64))
(declare-fun other_branch_dst_reg_47_240 () (_ BitVec 64))
(declare-fun other_branch_dst_reg_47_168 () (_ BitVec 64))
(declare-fun other_branch_dst_reg_47_239 () (_ BitVec 64))
(declare-fun other_branch_dst_reg_47_167 () (_ BitVec 64))
(declare-fun other_branch_dst_reg_47_238 () (_ BitVec 64))
(declare-fun other_branch_dst_reg_47_166 () (_ BitVec 64))
(declare-fun other_branch_dst_reg_47_237 () (_ BitVec 64))
(declare-fun other_branch_dst_reg_47_165 () (_ BitVec 64))
(declare-fun other_branch_dst_reg_47_236 () (_ BitVec 32))
(declare-fun other_branch_dst_reg_47_164 () (_ BitVec 32))
(declare-fun other_branch_dst_reg_47_235 () (_ BitVec 32))
(declare-fun other_branch_dst_reg_47_163 () (_ BitVec 32))
(declare-fun src_reg_47_234 () (_ BitVec 8))
(declare-fun src_reg_47_162 () (_ BitVec 8))
(declare-fun src_reg_47_233 () (_ BitVec 32))
(declare-fun src_reg_47_161 () (_ BitVec 32))
(declare-fun src_reg_47_232 () (_ BitVec 32))
(declare-fun src_reg_47_160 () (_ BitVec 32))
(declare-fun src_reg_47_231 () (_ BitVec 32))
(declare-fun src_reg_47_159 () (_ BitVec 32))
(declare-fun src_reg_47_230 () (_ BitVec 32))
(declare-fun src_reg_47_158 () (_ BitVec 32))
(declare-fun src_reg_47_229 () (_ BitVec 32))
(declare-fun src_reg_47_157 () (_ BitVec 32))
(declare-fun src_reg_47_228 () (_ BitVec 32))
(declare-fun src_reg_47_156 () (_ BitVec 32))
(declare-fun src_reg_47_227 () (_ BitVec 32))
(declare-fun src_reg_47_155 () (_ BitVec 32))
(declare-fun src_reg_47_226 () (_ BitVec 32))
(declare-fun src_reg_47_154 () (_ BitVec 32))
(declare-fun src_reg_47_225 () (_ BitVec 32))
(declare-fun src_reg_47_153 () (_ BitVec 32))
(declare-fun src_reg_47_224 () (_ BitVec 64))
(declare-fun src_reg_47_152 () (_ BitVec 64))
(declare-fun src_reg_47_223 () (_ BitVec 64))
(declare-fun src_reg_47_151 () (_ BitVec 64))
(declare-fun src_reg_47_222 () (_ BitVec 64))
(declare-fun src_reg_47_150 () (_ BitVec 64))
(declare-fun src_reg_47_221 () (_ BitVec 64))
(declare-fun src_reg_47_149 () (_ BitVec 64))
(declare-fun src_reg_47_220 () (_ BitVec 64))
(declare-fun src_reg_47_148 () (_ BitVec 64))
(declare-fun src_reg_47_219 () (_ BitVec 64))
(declare-fun src_reg_47_147 () (_ BitVec 64))
(declare-fun src_reg_47_218 () (_ BitVec 32))
(declare-fun src_reg_47_146 () (_ BitVec 32))
(declare-fun src_reg_47_217 () (_ BitVec 32))
(declare-fun src_reg_47_145 () (_ BitVec 32))
(declare-fun dst_reg_47_216 () (_ BitVec 8))
(declare-fun dst_reg_47_144 () (_ BitVec 8))
(declare-fun dst_reg_47_215 () (_ BitVec 32))
(declare-fun dst_reg_47_143 () (_ BitVec 32))
(declare-fun dst_reg_47_214 () (_ BitVec 32))
(declare-fun dst_reg_47_142 () (_ BitVec 32))
(declare-fun dst_reg_47_213 () (_ BitVec 32))
(declare-fun dst_reg_47_141 () (_ BitVec 32))
(declare-fun dst_reg_47_212 () (_ BitVec 32))
(declare-fun dst_reg_47_140 () (_ BitVec 32))
(declare-fun dst_reg_47_211 () (_ BitVec 32))
(declare-fun dst_reg_47_139 () (_ BitVec 32))
(declare-fun dst_reg_47_210 () (_ BitVec 32))
(declare-fun dst_reg_47_138 () (_ BitVec 32))
(declare-fun dst_reg_47_209 () (_ BitVec 32))
(declare-fun dst_reg_47_137 () (_ BitVec 32))
(declare-fun dst_reg_47_208 () (_ BitVec 32))
(declare-fun dst_reg_47_136 () (_ BitVec 32))
(declare-fun dst_reg_47_207 () (_ BitVec 32))
(declare-fun dst_reg_47_135 () (_ BitVec 32))
(declare-fun dst_reg_47_206 () (_ BitVec 64))
(declare-fun dst_reg_47_134 () (_ BitVec 64))
(declare-fun dst_reg_47_205 () (_ BitVec 64))
(declare-fun dst_reg_47_133 () (_ BitVec 64))
(declare-fun dst_reg_47_204 () (_ BitVec 64))
(declare-fun dst_reg_47_132 () (_ BitVec 64))
(declare-fun dst_reg_47_203 () (_ BitVec 64))
(declare-fun dst_reg_47_131 () (_ BitVec 64))
(declare-fun dst_reg_47_202 () (_ BitVec 64))
(declare-fun dst_reg_47_130 () (_ BitVec 64))
(declare-fun dst_reg_47_201 () (_ BitVec 64))
(declare-fun dst_reg_47_129 () (_ BitVec 64))
(declare-fun dst_reg_47_200 () (_ BitVec 32))
(declare-fun dst_reg_47_128 () (_ BitVec 32))
(declare-fun dst_reg_47_199 () (_ BitVec 32))
(declare-fun dst_reg_47_127 () (_ BitVec 32))
(assert (let ((a!1 (and (= cmp2.not.i_47_109 #b1)
                (and (= cmp.not.i_47_106 #b1) (= narrow_47_103 #b0))))
      (a!2 (and (= cmp2.not.i_47_109 #b0)
                (and (= cmp.not.i_47_106 #b1) (= narrow_47_103 #b0))))
      (a!3 (and (= i.i2_47_85 other_branch_src_reg_47_181)
                (= other_branch_src_reg_47_55 other_branch_src_reg_47_182)
                (= i21.i5_47_86 other_branch_src_reg_47_183)
                (= i22.i8_47_87 other_branch_src_reg_47_184)
                (= i23.i11_47_88 other_branch_src_reg_47_185)
                (= i24.i14_47_89 other_branch_src_reg_47_186)
                (= i25.i17_47_90 other_branch_src_reg_47_187)
                (= i26.i20_47_91 other_branch_src_reg_47_188)
                (= i27.i23_47_92 other_branch_src_reg_47_189)
                (= i28.i26_47_93 other_branch_src_reg_47_190)
                (= i29.i29_47_94 other_branch_src_reg_47_191)
                (= i30.i32_47_95 other_branch_src_reg_47_192)
                (= other_branch_src_reg_47_66 other_branch_src_reg_47_193)
                (= other_branch_src_reg_47_67 other_branch_src_reg_47_194)
                (= other_branch_src_reg_47_68 other_branch_src_reg_47_195)
                (= other_branch_src_reg_47_69 other_branch_src_reg_47_196)
                (= other_branch_src_reg_47_70 other_branch_src_reg_47_197)
                (= other_branch_src_reg_47_71 other_branch_src_reg_47_198)
                (= i.i_47_74 other_branch_dst_reg_47_163)
                (= other_branch_dst_reg_47_37 other_branch_dst_reg_47_164)
                (= i21.i_47_75 other_branch_dst_reg_47_165)
                (= i22.i_47_76 other_branch_dst_reg_47_166)
                (= i23.i_47_77 other_branch_dst_reg_47_167)
                (= i24.i_47_78 other_branch_dst_reg_47_168)
                (= i25.i_47_79 other_branch_dst_reg_47_169)
                (= i26.i_47_80 other_branch_dst_reg_47_170)
                (= i27.i_47_81 other_branch_dst_reg_47_171)
                (= i28.i_47_82 other_branch_dst_reg_47_172)
                (= i29.i_47_83 other_branch_dst_reg_47_173)
                (= i30.i_47_84 other_branch_dst_reg_47_174)
                (= other_branch_dst_reg_47_48 other_branch_dst_reg_47_175)
                (= other_branch_dst_reg_47_49 other_branch_dst_reg_47_176)
                (= other_branch_dst_reg_47_50 other_branch_dst_reg_47_177)
                (= other_branch_dst_reg_47_51 other_branch_dst_reg_47_178)
                (= other_branch_dst_reg_47_52 other_branch_dst_reg_47_179)
                (= other_branch_dst_reg_47_53 other_branch_dst_reg_47_180)
                (= #x00000001 src_reg_47_145)
                (= src_reg_47_19 src_reg_47_146)
                (= src_reg_47_20 src_reg_47_147)
                (= src_reg_47_21 src_reg_47_148)
                (= src_reg_47_22 src_reg_47_149)
                (= src_reg_47_23 src_reg_47_150)
                (= src_reg_47_24 src_reg_47_151)
                (= src_reg_47_25 src_reg_47_152)
                (= src_reg_47_26 src_reg_47_153)
                (= src_reg_47_27 src_reg_47_154)
                (= src_reg_47_28 src_reg_47_155)
                (= src_reg_47_29 src_reg_47_156)
                (= src_reg_47_30 src_reg_47_157)
                (= src_reg_47_31 src_reg_47_158)
                (= src_reg_47_32 src_reg_47_159)
                (= src_reg_47_33 src_reg_47_160)
                (= src_reg_47_34 src_reg_47_161)
                (= src_reg_47_35 src_reg_47_162)
                (= #x00000001 dst_reg_47_127)
                (= dst_reg_47_1 dst_reg_47_128)
                (= dst_reg_47_2 dst_reg_47_129)
                (= dst_reg_47_3 dst_reg_47_130)
                (= dst_reg_47_4 dst_reg_47_131)
                (= dst_reg_47_5 dst_reg_47_132)
                (= dst_reg_47_6 dst_reg_47_133)
                (= dst_reg_47_7 dst_reg_47_134)
                (= dst_reg_47_8 dst_reg_47_135)
                (= dst_reg_47_9 dst_reg_47_136)
                (= dst_reg_47_10 dst_reg_47_137)
                (= dst_reg_47_11 dst_reg_47_138)
                (= dst_reg_47_12 dst_reg_47_139)
                (= dst_reg_47_13 dst_reg_47_140)
                (= dst_reg_47_14 dst_reg_47_141)
                (= dst_reg_47_15 dst_reg_47_142)
                (= dst_reg_47_16 dst_reg_47_143)
                (= dst_reg_47_17 dst_reg_47_144)))
      (a!7 (=> (and (= cmp.not.i_47_106 #b1) (= narrow_47_103 #b0))
               (and (= #x00000001 i1.i_47_107)
                    (ite (= i1.i_47_107 #x00000001)
                         (= cmp2.not.i_47_109 #b1)
                         (= cmp2.not.i_47_109 #b0)))))
      (a!8 (=> (= narrow_47_103 #b0)
               (and (= #x00000001 i.i35_47_104)
                    (ite (= i.i35_47_104 #x00000001)
                         (= cmp.not.i_47_106 #b1)
                         (= cmp.not.i_47_106 #b0))))))
(let ((a!4 (and (=> (= narrow_47_103 #b1) a!3)
                (=> (and (= cmp.not.i_47_106 #b0) (= narrow_47_103 #b0)) a!3)
                (=> a!2 a!3)
                (=> a!1
                    (and (= i.i2_47_85 other_branch_src_reg_47_181)
                         (= other_branch_src_reg_47_55
                            other_branch_src_reg_47_182)
                         (= i21.i5_47_86 other_branch_src_reg_47_183)
                         (= i22.i8_47_87 other_branch_src_reg_47_184)
                         (= i23.i11_47_88 other_branch_src_reg_47_185)
                         (= i24.i14_47_89 other_branch_src_reg_47_186)
                         (= i25.i17_47_90 other_branch_src_reg_47_187)
                         (= i26.i20_47_91 other_branch_src_reg_47_188)
                         (= cond371.i540.i_47_126 other_branch_src_reg_47_189)
                         (= i28.i26_47_93 other_branch_src_reg_47_190)
                         (= i29.i29_47_94 other_branch_src_reg_47_191)
                         (= i30.i32_47_95 other_branch_src_reg_47_192)
                         (= other_branch_src_reg_47_66
                            other_branch_src_reg_47_193)
                         (= other_branch_src_reg_47_67
                            other_branch_src_reg_47_194)
                         (= other_branch_src_reg_47_68
                            other_branch_src_reg_47_195)
                         (= other_branch_src_reg_47_69
                            other_branch_src_reg_47_196)
                         (= other_branch_src_reg_47_70
                            other_branch_src_reg_47_197)
                         (= other_branch_src_reg_47_71
                            other_branch_src_reg_47_198)
                         (= i.i_47_74 other_branch_dst_reg_47_163)
                         (= other_branch_dst_reg_47_37
                            other_branch_dst_reg_47_164)
                         (= i21.i_47_75 other_branch_dst_reg_47_165)
                         (= i22.i_47_76 other_branch_dst_reg_47_166)
                         (= i23.i_47_77 other_branch_dst_reg_47_167)
                         (= i24.i_47_78 other_branch_dst_reg_47_168)
                         (= i25.i_47_79 other_branch_dst_reg_47_169)
                         (= i26.i_47_80 other_branch_dst_reg_47_170)
                         (= i27.i_47_81 other_branch_dst_reg_47_171)
                         (= cond361.i534.i_47_122 other_branch_dst_reg_47_172)
                         (= i29.i_47_83 other_branch_dst_reg_47_173)
                         (= i30.i_47_84 other_branch_dst_reg_47_174)
                         (= other_branch_dst_reg_47_48
                            other_branch_dst_reg_47_175)
                         (= other_branch_dst_reg_47_49
                            other_branch_dst_reg_47_176)
                         (= other_branch_dst_reg_47_50
                            other_branch_dst_reg_47_177)
                         (= other_branch_dst_reg_47_51
                            other_branch_dst_reg_47_178)
                         (= other_branch_dst_reg_47_52
                            other_branch_dst_reg_47_179)
                         (= other_branch_dst_reg_47_53
                            other_branch_dst_reg_47_180)
                         (= #x00000001 src_reg_47_145)
                         (= src_reg_47_19 src_reg_47_146)
                         (= src_reg_47_20 src_reg_47_147)
                         (= src_reg_47_21 src_reg_47_148)
                         (= src_reg_47_22 src_reg_47_149)
                         (= src_reg_47_23 src_reg_47_150)
                         (= src_reg_47_24 src_reg_47_151)
                         (= src_reg_47_25 src_reg_47_152)
                         (= src_reg_47_26 src_reg_47_153)
                         (= cond407.i.i_47_113 src_reg_47_154)
                         (= src_reg_47_28 src_reg_47_155)
                         (= src_reg_47_29 src_reg_47_156)
                         (= src_reg_47_30 src_reg_47_157)
                         (= src_reg_47_31 src_reg_47_158)
                         (= src_reg_47_32 src_reg_47_159)
                         (= src_reg_47_33 src_reg_47_160)
                         (= src_reg_47_34 src_reg_47_161)
                         (= src_reg_47_35 src_reg_47_162)
                         (= #x00000001 dst_reg_47_127)
                         (= dst_reg_47_1 dst_reg_47_128)
                         (= dst_reg_47_2 dst_reg_47_129)
                         (= dst_reg_47_3 dst_reg_47_130)
                         (= dst_reg_47_4 dst_reg_47_131)
                         (= dst_reg_47_5 dst_reg_47_132)
                         (= dst_reg_47_6 dst_reg_47_133)
                         (= dst_reg_47_7 dst_reg_47_134)
                         (= cond418.i.i_47_118 dst_reg_47_135)
                         (= dst_reg_47_9 dst_reg_47_136)
                         (= dst_reg_47_10 dst_reg_47_137)
                         (= dst_reg_47_11 dst_reg_47_138)
                         (= dst_reg_47_12 dst_reg_47_139)
                         (= dst_reg_47_13 dst_reg_47_140)
                         (= dst_reg_47_14 dst_reg_47_141)
                         (= dst_reg_47_15 dst_reg_47_142)
                         (= dst_reg_47_16 dst_reg_47_143)
                         (= dst_reg_47_17 dst_reg_47_144)))
                (= dst_reg_47_127 dst_reg_47_199)
                (= dst_reg_47_128 dst_reg_47_200)
                (= dst_reg_47_129 dst_reg_47_201)
                (= dst_reg_47_130 dst_reg_47_202)
                (= dst_reg_47_131 dst_reg_47_203)
                (= dst_reg_47_132 dst_reg_47_204)
                (= dst_reg_47_133 dst_reg_47_205)
                (= dst_reg_47_134 dst_reg_47_206)
                (= dst_reg_47_135 dst_reg_47_207)
                (= dst_reg_47_136 dst_reg_47_208)
                (= dst_reg_47_137 dst_reg_47_209)
                (= dst_reg_47_138 dst_reg_47_210)
                (= dst_reg_47_139 dst_reg_47_211)
                (= dst_reg_47_140 dst_reg_47_212)
                (= dst_reg_47_141 dst_reg_47_213)
                (= dst_reg_47_142 dst_reg_47_214)
                (= dst_reg_47_143 dst_reg_47_215)
                (= dst_reg_47_144 dst_reg_47_216)
                (= src_reg_47_145 src_reg_47_217)
                (= src_reg_47_146 src_reg_47_218)
                (= src_reg_47_147 src_reg_47_219)
                (= src_reg_47_148 src_reg_47_220)
                (= src_reg_47_149 src_reg_47_221)
                (= src_reg_47_150 src_reg_47_222)
                (= src_reg_47_151 src_reg_47_223)
                (= src_reg_47_152 src_reg_47_224)
                (= src_reg_47_153 src_reg_47_225)
                (= src_reg_47_154 src_reg_47_226)
                (= src_reg_47_155 src_reg_47_227)
                (= src_reg_47_156 src_reg_47_228)
                (= src_reg_47_157 src_reg_47_229)
                (= src_reg_47_158 src_reg_47_230)
                (= src_reg_47_159 src_reg_47_231)
                (= src_reg_47_160 src_reg_47_232)
                (= src_reg_47_161 src_reg_47_233)
                (= src_reg_47_162 src_reg_47_234)
                (= other_branch_dst_reg_47_163 other_branch_dst_reg_47_235)
                (= other_branch_dst_reg_47_164 other_branch_dst_reg_47_236)
                (= other_branch_dst_reg_47_165 other_branch_dst_reg_47_237)
                (= other_branch_dst_reg_47_166 other_branch_dst_reg_47_238)
                (= other_branch_dst_reg_47_167 other_branch_dst_reg_47_239)
                (= other_branch_dst_reg_47_168 other_branch_dst_reg_47_240)
                (= other_branch_dst_reg_47_169 other_branch_dst_reg_47_241)
                (= other_branch_dst_reg_47_170 other_branch_dst_reg_47_242)
                (= other_branch_dst_reg_47_171 other_branch_dst_reg_47_243)
                (= other_branch_dst_reg_47_172 other_branch_dst_reg_47_244)
                (= other_branch_dst_reg_47_173 other_branch_dst_reg_47_245)
                (= other_branch_dst_reg_47_174 other_branch_dst_reg_47_246)
                (= other_branch_dst_reg_47_175 other_branch_dst_reg_47_247)
                (= other_branch_dst_reg_47_176 other_branch_dst_reg_47_248)
                (= other_branch_dst_reg_47_177 other_branch_dst_reg_47_249)
                (= other_branch_dst_reg_47_178 other_branch_dst_reg_47_250)
                (= other_branch_dst_reg_47_179 other_branch_dst_reg_47_251)
                (= other_branch_dst_reg_47_180 other_branch_dst_reg_47_252)
                (= other_branch_src_reg_47_181 other_branch_src_reg_47_253)
                (= other_branch_src_reg_47_182 other_branch_src_reg_47_254)
                (= other_branch_src_reg_47_183 other_branch_src_reg_47_255)
                (= other_branch_src_reg_47_184 other_branch_src_reg_47_256)
                (= other_branch_src_reg_47_185 other_branch_src_reg_47_257)
                (= other_branch_src_reg_47_186 other_branch_src_reg_47_258)
                (= other_branch_src_reg_47_187 other_branch_src_reg_47_259)
                (= other_branch_src_reg_47_188 other_branch_src_reg_47_260)
                (= other_branch_src_reg_47_189 other_branch_src_reg_47_261)
                (= other_branch_src_reg_47_190 other_branch_src_reg_47_262)
                (= other_branch_src_reg_47_191 other_branch_src_reg_47_263)
                (= other_branch_src_reg_47_192 other_branch_src_reg_47_264)
                (= other_branch_src_reg_47_193 other_branch_src_reg_47_265)
                (= other_branch_src_reg_47_194 other_branch_src_reg_47_266)
                (= other_branch_src_reg_47_195 other_branch_src_reg_47_267)
                (= other_branch_src_reg_47_196 other_branch_src_reg_47_268)
                (= other_branch_src_reg_47_197 other_branch_src_reg_47_269)
                (= other_branch_src_reg_47_198 other_branch_src_reg_47_270)))
      (a!6 (=> a!1
               (and (= sub400.i.i_47_111 (bvadd i138.i.i_47_97 #xffffffff))
                    (ite (bvslt i146.i.i_47_99 sub400.i.i_47_111)
                         (= cmp402.i.i_47_112 #b1)
                         (= cmp402.i.i_47_112 #b0))
                    (ite (= cmp402.i.i_47_112 #b1)
                         (= cond407.i.i_47_113 i146.i.i_47_99)
                         (= cond407.i.i_47_113 sub400.i.i_47_111))
                    (= add410.i.i_47_115 (bvadd i144.i.i_47_98 #x00000001))
                    (= dst_reg_47_8 i373.i.i_47_116)
                    (ite (bvsgt add410.i.i_47_115 i373.i.i_47_116)
                         (= cmp413.i.i_47_117 #b1)
                         (= cmp413.i.i_47_117 #b0))
                    (ite (= cmp413.i.i_47_117 #b1)
                         (= cond418.i.i_47_118 add410.i.i_47_115)
                         (= cond418.i.i_47_118 i373.i.i_47_116))
                    (= i28.i_47_82 i362.i530.i_47_119)
                    (= i28.i26_47_93 i363.i532.i_47_120)
                    (ite (bvslt i362.i530.i_47_119 i363.i532.i_47_120)
                         (= cmp356.i533.i_47_121 #b1)
                         (= cmp356.i533.i_47_121 #b0))
                    (ite (= cmp356.i533.i_47_121 #b1)
                         (= cond361.i534.i_47_122 i362.i530.i_47_119)
                         (= cond361.i534.i_47_122 i363.i532.i_47_120))
                    (= i27.i_47_81 i364.i536.i_47_123)
                    (= i27.i23_47_92 i365.i538.i_47_124)
                    (ite (bvsgt i364.i536.i_47_123 i365.i538.i_47_124)
                         (= cmp366.i539.i_47_125 #b1)
                         (= cmp366.i539.i_47_125 #b0))
                    (ite (= cmp366.i539.i_47_125 #b1)
                         (= cond371.i540.i_47_126 i364.i536.i_47_123)
                         (= cond371.i540.i_47_126 i365.i538.i_47_124))))))
(let ((a!5 (=> (or a!1
                   a!2
                   (and (= cmp.not.i_47_106 #b0) (= narrow_47_103 #b0))
                   (= narrow_47_103 #b1))
               a!4)))
  (and a!5
       a!6
       a!7
       a!8
       (= dst_reg_47_0 dst_reg_47_0)
       (= dst_reg_47_1 dst_reg_47_1)
       (= dst_reg_47_2 dst_reg_47_2)
       (= dst_reg_47_3 dst_reg_47_3)
       (= dst_reg_47_4 dst_reg_47_4)
       (= dst_reg_47_5 dst_reg_47_5)
       (= dst_reg_47_6 dst_reg_47_6)
       (= dst_reg_47_7 dst_reg_47_7)
       (= dst_reg_47_8 dst_reg_47_8)
       (= dst_reg_47_9 dst_reg_47_9)
       (= dst_reg_47_10 dst_reg_47_10)
       (= dst_reg_47_11 dst_reg_47_11)
       (= dst_reg_47_12 dst_reg_47_12)
       (= dst_reg_47_13 dst_reg_47_13)
       (= dst_reg_47_14 dst_reg_47_14)
       (= dst_reg_47_15 dst_reg_47_15)
       (= dst_reg_47_16 dst_reg_47_16)
       (= dst_reg_47_17 dst_reg_47_17)
       (= src_reg_47_18 src_reg_47_18)
       (= src_reg_47_19 src_reg_47_19)
       (= src_reg_47_20 src_reg_47_20)
       (= src_reg_47_21 src_reg_47_21)
       (= src_reg_47_22 src_reg_47_22)
       (= src_reg_47_23 src_reg_47_23)
       (= src_reg_47_24 src_reg_47_24)
       (= src_reg_47_25 src_reg_47_25)
       (= src_reg_47_26 src_reg_47_26)
       (= src_reg_47_27 src_reg_47_27)
       (= src_reg_47_28 src_reg_47_28)
       (= src_reg_47_29 src_reg_47_29)
       (= src_reg_47_30 src_reg_47_30)
       (= src_reg_47_31 src_reg_47_31)
       (= src_reg_47_32 src_reg_47_32)
       (= src_reg_47_33 src_reg_47_33)
       (= src_reg_47_34 src_reg_47_34)
       (= src_reg_47_35 src_reg_47_35)
       (= other_branch_dst_reg_47_36 other_branch_dst_reg_47_36)
       (= other_branch_dst_reg_47_37 other_branch_dst_reg_47_37)
       (= other_branch_dst_reg_47_38 other_branch_dst_reg_47_38)
       (= other_branch_dst_reg_47_39 other_branch_dst_reg_47_39)
       (= other_branch_dst_reg_47_40 other_branch_dst_reg_47_40)
       (= other_branch_dst_reg_47_41 other_branch_dst_reg_47_41)
       (= other_branch_dst_reg_47_42 other_branch_dst_reg_47_42)
       (= other_branch_dst_reg_47_43 other_branch_dst_reg_47_43)
       (= other_branch_dst_reg_47_44 other_branch_dst_reg_47_44)
       (= other_branch_dst_reg_47_45 other_branch_dst_reg_47_45)
       (= other_branch_dst_reg_47_46 other_branch_dst_reg_47_46)
       (= other_branch_dst_reg_47_47 other_branch_dst_reg_47_47)
       (= other_branch_dst_reg_47_48 other_branch_dst_reg_47_48)
       (= other_branch_dst_reg_47_49 other_branch_dst_reg_47_49)
       (= other_branch_dst_reg_47_50 other_branch_dst_reg_47_50)
       (= other_branch_dst_reg_47_51 other_branch_dst_reg_47_51)
       (= other_branch_dst_reg_47_52 other_branch_dst_reg_47_52)
       (= other_branch_dst_reg_47_53 other_branch_dst_reg_47_53)
       (= other_branch_src_reg_47_54 other_branch_src_reg_47_54)
       (= other_branch_src_reg_47_55 other_branch_src_reg_47_55)
       (= other_branch_src_reg_47_56 other_branch_src_reg_47_56)
       (= other_branch_src_reg_47_57 other_branch_src_reg_47_57)
       (= other_branch_src_reg_47_58 other_branch_src_reg_47_58)
       (= other_branch_src_reg_47_59 other_branch_src_reg_47_59)
       (= other_branch_src_reg_47_60 other_branch_src_reg_47_60)
       (= other_branch_src_reg_47_61 other_branch_src_reg_47_61)
       (= other_branch_src_reg_47_62 other_branch_src_reg_47_62)
       (= other_branch_src_reg_47_63 other_branch_src_reg_47_63)
       (= other_branch_src_reg_47_64 other_branch_src_reg_47_64)
       (= other_branch_src_reg_47_65 other_branch_src_reg_47_65)
       (= other_branch_src_reg_47_66 other_branch_src_reg_47_66)
       (= other_branch_src_reg_47_67 other_branch_src_reg_47_67)
       (= other_branch_src_reg_47_68 other_branch_src_reg_47_68)
       (= other_branch_src_reg_47_69 other_branch_src_reg_47_69)
       (= other_branch_src_reg_47_70 other_branch_src_reg_47_70)
       (= other_branch_src_reg_47_71 other_branch_src_reg_47_71)
       (= #x00000001 i.i_47_74)
       (= dst_reg_47_2 i21.i_47_75)
       (= dst_reg_47_3 i22.i_47_76)
       (= dst_reg_47_4 i23.i_47_77)
       (= dst_reg_47_5 i24.i_47_78)
       (= dst_reg_47_6 i25.i_47_79)
       (= dst_reg_47_7 i26.i_47_80)
       (= dst_reg_47_8 i27.i_47_81)
       (= dst_reg_47_9 i28.i_47_82)
       (= dst_reg_47_10 i29.i_47_83)
       (= dst_reg_47_11 i30.i_47_84)
       (= #x00000001 i.i2_47_85)
       (= src_reg_47_20 i21.i5_47_86)
       (= src_reg_47_21 i22.i8_47_87)
       (= src_reg_47_22 i23.i11_47_88)
       (= src_reg_47_23 i24.i14_47_89)
       (= src_reg_47_24 i25.i17_47_90)
       (= src_reg_47_25 i26.i20_47_91)
       (= src_reg_47_26 i27.i23_47_92)
       (= src_reg_47_27 i28.i26_47_93)
       (= src_reg_47_28 i29.i29_47_94)
       (= src_reg_47_29 i30.i32_47_95)
       (= dst_reg_47_8 i136.i.i_47_96)
       (= dst_reg_47_9 i138.i.i_47_97)
       (= src_reg_47_26 i144.i.i_47_98)
       (= src_reg_47_27 i146.i.i_47_99)
       (ite (bvsle i138.i.i_47_97 i144.i.i_47_98)
            (= cmp261.not.i.i_47_100 #b1)
            (= cmp261.not.i.i_47_100 #b0))
       (ite (bvsgt i136.i.i_47_96 i146.i.i_47_99)
            (= cmp265.i.i_47_101 #b1)
            (= cmp265.i.i_47_101 #b0))
       (ite (= cmp261.not.i.i_47_100 #b1)
            (= narrow_47_103 #b1)
            (= narrow_47_103 cmp265.i.i_47_101)))))))

;{"dst_reg":["dst_reg_47_0","dst_reg_47_1",[""],["dst_reg_47_2","dst_reg_47_3"],"dst_reg_47_4","dst_reg_47_5","dst_reg_47_6","dst_reg_47_7","dst_reg_47_8","dst_reg_47_9","dst_reg_47_10","dst_reg_47_11","dst_reg_47_12","dst_reg_47_13","","","dst_reg_47_14","dst_reg_47_15","dst_reg_47_16"],"other_branch_dst_reg":["other_branch_dst_reg_47_36","other_branch_dst_reg_47_37",[""],["other_branch_dst_reg_47_38","other_branch_dst_reg_47_39"],"other_branch_dst_reg_47_40","other_branch_dst_reg_47_41","other_branch_dst_reg_47_42","other_branch_dst_reg_47_43","other_branch_dst_reg_47_44","other_branch_dst_reg_47_45","other_branch_dst_reg_47_46","other_branch_dst_reg_47_47","other_branch_dst_reg_47_48","other_branch_dst_reg_47_49","","","other_branch_dst_reg_47_50","other_branch_dst_reg_47_51","other_branch_dst_reg_47_52"],"other_branch_src_reg":["other_branch_src_reg_47_54","other_branch_src_reg_47_55",[""],["other_branch_src_reg_47_56","other_branch_src_reg_47_57"],"other_branch_src_reg_47_58","other_branch_src_reg_47_59","other_branch_src_reg_47_60","other_branch_src_reg_47_61","other_branch_src_reg_47_62","other_branch_src_reg_47_63","other_branch_src_reg_47_64","other_branch_src_reg_47_65","other_branch_src_reg_47_66","other_branch_src_reg_47_67","","","other_branch_src_reg_47_68","other_branch_src_reg_47_69","other_branch_src_reg_47_70"],"src_reg":["src_reg_47_18","src_reg_47_19",[""],["src_reg_47_20","src_reg_47_21"],"src_reg_47_22","src_reg_47_23","src_reg_47_24","src_reg_47_25","src_reg_47_26","src_reg_47_27","src_reg_47_28","src_reg_47_29","src_reg_47_30","src_reg_47_31","","","src_reg_47_32","src_reg_47_33","src_reg_47_34"]}
;{"dst_reg":["dst_reg_47_199","dst_reg_47_200",[""],["dst_reg_47_201","dst_reg_47_202"],"dst_reg_47_203","dst_reg_47_204","dst_reg_47_205","dst_reg_47_206","dst_reg_47_207","dst_reg_47_208","dst_reg_47_209","dst_reg_47_210","dst_reg_47_211","dst_reg_47_212","","","dst_reg_47_213","dst_reg_47_214","dst_reg_47_215"],"other_branch_dst_reg":["other_branch_dst_reg_47_235","other_branch_dst_reg_47_236",[""],["other_branch_dst_reg_47_237","other_branch_dst_reg_47_238"],"other_branch_dst_reg_47_239","other_branch_dst_reg_47_240","other_branch_dst_reg_47_241","other_branch_dst_reg_47_242","other_branch_dst_reg_47_243","other_branch_dst_reg_47_244","other_branch_dst_reg_47_245","other_branch_dst_reg_47_246","other_branch_dst_reg_47_247","other_branch_dst_reg_47_248","","","other_branch_dst_reg_47_249","other_branch_dst_reg_47_250","other_branch_dst_reg_47_251"],"other_branch_src_reg":["other_branch_src_reg_47_253","other_branch_src_reg_47_254",[""],["other_branch_src_reg_47_255","other_branch_src_reg_47_256"],"other_branch_src_reg_47_257","other_branch_src_reg_47_258","other_branch_src_reg_47_259","other_branch_src_reg_47_260","other_branch_src_reg_47_261","other_branch_src_reg_47_262","other_branch_src_reg_47_263","other_branch_src_reg_47_264","other_branch_src_reg_47_265","other_branch_src_reg_47_266","","","other_branch_src_reg_47_267","other_branch_src_reg_47_268","other_branch_src_reg_47_269"],"src_reg":["src_reg_47_217","src_reg_47_218",[""],["src_reg_47_219","src_reg_47_220"],"src_reg_47_221","src_reg_47_222","src_reg_47_223","src_reg_47_224","src_reg_47_225","src_reg_47_226","src_reg_47_227","src_reg_47_228","src_reg_47_229","src_reg_47_230","","","src_reg_47_231","src_reg_47_232","src_reg_47_233"]}
